CMD:
./solvers/bin/cadical --plain --no-reduce -t 1600 ./data/cnfs//bj08amba2g3f3/bj08amba2g3f3.30.cnf

c --- [ banner ] -------------------------------------------------------------
c 
c CaDiCaL SAT Solver
c Copyright (c) 2016-2024
c A. Biere, M. Fleury, N. Froleyks, K. Fazekas, F. Pollitt, T. Faller
c JKU Linz, University of Freiburg, TU Wien
c 
c Version 2.1.3 5296d3d2a9bf48c154ab2acb5e44625776d821bf
c g++ (Gentoo 12.3.1_p20230526 p2) 12.3.1 20230526 -Wall -Wextra -O3 -DNDEBUG
c Sat Aug 9 07:26:21 PDT 2025 Linux cedar2.int.cedar.computecanada.ca 5.14.0-362.24.2.el9_3.x86_64 x86_64
c 
c --- [ limit ] --------------------------------------------------------------
c 
c setting time limit to 1600 seconds real time (due to '-t 1600')
c 
c --- [ parsing input ] ------------------------------------------------------
c 
c reading DIMACS file from './data/cnfs//bj08amba2g3f3/bj08amba2g3f3.30.cnf'
c opening file to read './data/cnfs//bj08amba2g3f3/bj08amba2g3f3.30.cnf'
c found 'p cnf 43738 130321' header
c parsed 130321 clauses in 0.02 seconds process time
c 
c --- [ options ] ------------------------------------------------------------
c 
c   --compact=false                (different from default 'true')
c   --decompose=false              (different from default 'true')
c   --deduplicate=false            (different from default 'true')
c   --elim=false                   (different from default 'true')
c   --probe=false                  (different from default 'true')
c   --reduce=false                 (different from default 'true')
c   --subsume=false                (different from default 'true')
c   --ternary=false                (different from default 'true')
c   --transred=false               (different from default 'true')
c   --vivify=false                 (different from default 'true')
c 
c --- [ solving ] ------------------------------------------------------------
c 
c time measured in process time since initialization
c 
c  seconds  reductions  redundant  irredundant
c         MB    restarts       trail       variables
c          level   conflicts       glue         remaining
c 
c *  0.02 23  0 0   0    0    0  0% 0 124341 39444 90%
c {  0.03 24  0 0   0    0    0  0% 0 124341 39444 90%
c i  0.03 24 24 0   0   89   81 14% 4 124341 39442 90%
c i  0.03 24 24 0   0   90   81 14% 4 124341 39440 90%
c i  0.03 24 24 0   0   91   81 14% 4 124341 39432 90%
c }  0.08 24 97 0   0 1001  883 45% 3 124341 39432 90%
c [  0.08 24  0 0   0 1001  883  0% 0 124341 39432 90%
c O  0.08 24  1 0   0 1002  883 14% 0 124341 39432 90%
c i  0.08 24  1 0   0 1002  883 14% 0 124341 39410 90%
c i  0.08 24  1 0   0 1003  883 15% 0 124341 39388 90%
c i  0.08 24  1 0   0 1004  883 17% 0 124341 39366 90%
c i  0.09 24 128 0   0 1088  963 78% 3 124341 39123 89%
c ]  0.20 25 104 0   1 3004 2739 63% 5 124341 39095 89%
c {  0.20 25 97 0   1 3004 2739 45% 3 124341 39095 89%
c F  0.20 25 97 0   1 3005 2740 45% 3 124341 39095 89%
c i  0.21 25 94 0  11 3132 2859 45% 3 124341 39094 89%
c i  0.26 25 63 0 192 4015 3663 36% 3 124341 39093 89%
c i  0.26 25 62 0 197 4062 3698 35% 3 124341 39092 89%
c i  0.26 25 61 0 197 4113 3738 35% 3 124341 39082 89%
c i  0.26 25 60 0 197 4138 3758 35% 3 124341 38994 89%
c 
c  seconds  reductions  redundant  irredundant
c         MB    restarts       trail       variables
c          level   conflicts       glue         remaining
c 
c i  0.26 25 59 0 197 4190 3808 34% 3 124341 38993 89%
c i  0.27 25 57 0 211 4341 3939 33% 3 124341 38992 89%
c i  0.27 25 57 0 213 4376 3970 33% 3 124341 38991 89%
c i  0.27 25 57 0 213 4377 3970 33% 3 124341 38990 89%
c i  0.27 25 57 0 213 4378 3970 33% 3 124341 38989 89%
c i  0.27 25 56 0 213 4397 3983 33% 3 124341 38982 89%
c i  0.27 25 56 0 213 4414 3997 33% 3 124341 38979 89%
c i  0.27 25 56 0 213 4441 4021 33% 3 124341 38978 89%
c i  0.29 25 55 0 231 4701 4263 33% 3 124341 38974 89%
c i  0.34 25 56 0 323 5496 4984 33% 3 124341 38973 89%
c i  0.34 25 55 0 323 5524 5010 33% 3 124341 38956 89%
c i  0.34 25 55 0 323 5541 5025 33% 3 124341 38954 89%
c #  0.36 25 53 0 349 6006 5461 32% 3 124341 38954 89%
c i  0.38 25 53 0 376 6147 5591 32% 3 124341 38952 89%
c i  0.38 25 53 0 379 6161 5600 32% 3 124341 38942 89%
c }  0.42 26 53 0 433 7004 6369 33% 3 124341 38942 89%
c [  0.42 26 104 0 433 7004 6369 63% 5 124341 38942 89%
c i  0.58 26 72 0 434 9073 8243 49% 5 124341 38939 89%
c i  0.60 26 72 0 435 9314 8461 50% 5 124341 38938 89%
c i  0.60 26 72 0 435 9316 8462 50% 5 124341 38937 89%
c 
c  seconds  reductions   redundant  irredundant
c         MB    restarts        trail       variables
c          level    conflicts       glue         remaining
c 
c I  0.66 26 76 0 435 10007 9111 50% 5 124341 38937 89%
c i  0.79 26 71 0 437 11482 10425 48% 5 124341 38934 89%
c i  0.79 26 71 0 437 11528 10458 49% 6 124341 38923 89%
c i  0.83 26 70 0 437 12067 10943 49% 6 124341 38922 89%
... skipped 27 lines ...
c i  1.64 28 40 0 1328 19613 17757 31% 4 124341 38338 88%
c i  1.64 28 40 0 1332 19627 17768 31% 4 124341 38231 87%
c i  1.79 28 39 0 1529 20690 18736 31% 4 124341 38229 87%
c i  1.80 28 39 0 1536 20765 18795 31% 4 124341 38224 87%
c W  1.87 29 38 0 1584 21010 18518 31% 4 111423 38224 87%
c i  1.96 29 38 0 1679 21553 18985 31% 4 111423 38218 87%
c i  1.96 29 37 0 1685 21608 19036 31% 4 111423 38214 87%
c i  1.98 29 37 0 1688 21694 19117 31% 4 111423 38209 87%
c i  1.99 29 37 0 1689 21730 19143 31% 4 111423 38207 87%
c i  2.07 29 36 0 1815 22273 19618 31% 4 111423 38149 87%
c i  2.08 29 36 0 1815 22312 19653 31% 4 111423 38147 87%
c i  2.11 29 36 0 1841 22455 19784 31% 4 111423 38066 87%
c i  2.16 29 36 0 1884 22842 20145 31% 4 111423 38012 87%
c i  2.50 29 34 0 2236 25163 22171 32% 4 111423 37885 87%
c 
c  seconds  reductions     redundant  irredundant
c         MB    restarts          trail       variables
c          level     conflicts        glue         remaining
c 
c i  2.56 29 34 0 2293 25531 22503 32% 4 111423 37870 87%
c i  2.60 29 33 0 2336 25731 22680 32% 4 111423 37860 87%
c i  2.72 29 33 0 2419 26527 23372 32% 4 111423 37730 86%
c i  2.80 29 32 0 2465 27009 23766 32% 4 111423 37584 86%
c i  2.82 29 32 0 2468 27155 23873 32% 4 111423 37583 86%
c i  2.85 29 32 0 2500 27282 23987 32% 4 111423 37362 85%
c i  2.86 29 32 0 2510 27324 24027 32% 4 111423 37360 85%
c i  2.89 29 32 0 2531 27467 24114 32% 4 111423 37249 85%
c F  2.95 29 31 0 2536 28011 24598 33% 4 111423 37249 85%
c i  2.95 29 31 0 2536 28032 24610 33% 4 111423 37231 85%
c i  2.99 29 31 0 2548 28278 24796 33% 4 111423 37118 85%
c i  2.99 29 31 0 2548 28279 24796 33% 4 111423 37058 85%
c i  3.06 29 30 0 2587 28640 25067 33% 4 111423 37057 85%
c i  3.08 29 30 0 2596 28743 25145 33% 4 111423 36493 83%
c i  3.09 29 30 0 2596 28801 25192 33% 4 111423 36340 83%
c i  3.10 29 30 0 2596 28841 25214 33% 4 111423 27694 63%
c i  3.10 29 30 0 2596 28886 25240 33% 4 111423 27578 63%
c i  3.10 29 30 0 2596 28887 25240 33% 4 111423 27509 63%
c i  3.10 29 30 0 2596 28916 25260 33% 4 111423 26109 60%
c i  3.10 29 30 0 2596 28917 25260 33% 4 111423 25053 57%
c 
c  seconds  reductions     redundant  irredundant
c         MB    restarts          trail       variables
c          level     conflicts        glue         remaining
c 
c }  3.10 29 30 0 2596 28920 25261 33% 4 111423 24948 57%
c 0  3.10 29 30 0 2596 28920 25261 33% 4 111423 24948 57%
c 
c --- [ result ] -------------------------------------------------------------
c 
s UNSATISFIABLE
c 
c --- [ run-time profiling ] -------------------------------------------------
c 
c process time taken by individual solving procedures
c (percentage relative to process time for solving)
c 
c         3.08  100.00% search
c         2.24   72.64% unstable
c         0.80   25.85% stable
c         0.04    1.36% walk
c         0.02    0.72% parse
c         0.00    0.15% lucky
c         0.00    0.00% simplify
c   =================================
c         3.08   99.27% solve
c 
c last line shows process time for solving
c (percentage relative to total process time)
c 
c --- [ statistics ] ---------------------------------------------------------
c 
c chronological:             12487        43.18 %  of conflicts
c conflicts:                 28920      9387.67    per second
c decisions:                113327     36786.88    per second
c fixed:                     18790        42.96 %  of all variables
c learned:                   27783        96.07 %  per conflict
c learned_lits:             602488       100.00 %  learned literals
c minimized:                     0         0.00 %  learned literals
c shrunken:                 128797        21.38 %  learned literals
c minishrunken:             142759        23.69 %  learned literals
c otfs:                        297         1.03 %  of conflict
c propagations:           46477062        15.09 M  per second
c rephased:                      7      4131.43    interval
c restarts:                   2596        11.14    interval
c stabilizing:                   2        34.59 %  of conflicts
c subsumed:                   1941         1.28 %  of all clauses
c strengthened:                291         0.19 %  of all clauses
c walked:                        1     28920.00    interval
c 
c seconds are measured in process time for solving
c 
c --- [ resources ] ----------------------------------------------------------
c 
c total process time since initialization:         3.10    seconds
c total real time since initialization:            3.13    seconds
c maximum resident set size of process:           31.57    MB
c 
c --- [ shutting down ] ------------------------------------------------------
c 
c exit 20
